array [1..2] of int: X_INTRODUCED_6_ = [-1,1];
array [1..2] of int: X_INTRODUCED_7_ = [1,-1];
var 0..20: b:: output_var;
var 1..10: X_INTRODUCED_0_;
var {1,2,4,5,6,7,8,9,10}: X_INTRODUCED_1_;
var 1..10: X_INTRODUCED_2_;
var 1..10: X_INTRODUCED_3_;
var 4..160: objective:: is_defined_var;
array [1..4] of var int: z:: output_array([1..4]) = [X_INTRODUCED_0_,X_INTRODUCED_1_,X_INTRODUCED_2_,X_INTRODUCED_3_];
constraint int_lin_le(X_INTRODUCED_6_,[b,X_INTRODUCED_0_],-1);
constraint int_lin_le(X_INTRODUCED_7_,[b,X_INTRODUCED_3_],-1);
constraint int_lin_eq([1,1,1,1,1,-1],[X_INTRODUCED_0_,X_INTRODUCED_1_,X_INTRODUCED_2_,X_INTRODUCED_3_,b,objective],-15):: defines_var(objective);
solve  maximize objective;
